
100
26067

513 415
386 288
946 845
546 444
630 529
652 552
440 339
740 640
1002 901
174 72
661 561
364 265
755 656
724 624
147 46
212 113
628 529
957 859
899 798
922 824
237 138
449 351
678 577
468 367
332 231
1021 923
735 636
498 399
579 477
802 700
861 760
880 780
435 335
1068 968
864 764
370 271
271 172
529 431
360 261
976 878
111 10
920 818
260 162
914 812
534 433
231 132
1087 986
519 419
1080 979
424 323
340 238
656 556
294 195
679 578
809 708
742 642
105 6
770 668
371 269
555 454
959 859
968 867
230 132
190 92
853 754
533 432
810 708
748 647
1091 990
959 861
1097 995
1001 903
668 569
508 408
264 163
938 840
593 492
587 486
395 294
431 331
607 505
745 643
408 310
252 150
697 596
1047 945
664 562
1079 979
279 181
899 797
636 538
130 32
274 175
823 721
917 819
233 132
783 684
989 888
341 241
931 829
